     Program PWSCF v.6.1 (svn rev. 13369) starts on 10Sep2017 at 17:20:37

     Current dimensions of program PWSCF are:
     Max number of different atomic species (ntypx) = 10
     Max number of k-points (npk) =  40000
     Max angular momentum in pseudopotentials (lmaxx) =  3

     gamma-point specific algorithms are used

     bravais-lattice index     =            0
     lattice parameter (alat)  =      20.5290  a.u.
     unit-cell volume          =   25567.7016 (a.u.)^3
     number of atoms/cell      =          264
     number of atomic types    =            2
     number of electrons       =      1152.00
     number of Kohn-Sham states=          700
     kinetic-energy cutoff     =      70.0000  Ry
     charge density cutoff     =     280.0000  Ry
     convergence threshold     =      1.0E-08
     mixing beta               =       0.7000
     number of iterations used =            8  plain     mixing
     Exchange-correlation      = PBE ( 1  4  3  4 0 0)

     celldm(1)=  20.529000  celldm(2)=   0.000000  celldm(3)=   0.000000
     celldm(4)=   0.000000  celldm(5)=   0.000000  celldm(6)=   0.000000

     crystal axes: (cart. coord. in units of alat)
               a(1) = (   1.000000   0.000000   0.000000 )
               a(2) = (   0.000000   1.000000   0.000000 )
               a(3) = (   0.000000   0.000000   2.955210 )

     reciprocal axes: (cart. coord. in units 2 pi/alat)
               b(1) = (  1.000000  0.000000  0.000000 )
               b(2) = (  0.000000  1.000000  0.000000 )
               b(3) = (  0.000000  0.000000  0.338385 )

     PseudoPot. # 1 for N  read from file:
     ./N_ONCV_PBE-1.0.upf
     MD5 check sum: e7391ac1e3da9302b4611eea0a09cd4a
     Pseudo is Norm-conserving, Zval =  5.0
     Generated using ONCVPSP code by D. R. Hamann
     Using radial grid of  602 points,  4 beta functions with:
                l(1) =   0
                l(2) =   0
                l(3) =   1
                l(4) =   1

     PseudoPot. # 2 for Si read from file:
     ./Si_ONCV_PBE-1.1.upf
     MD5 check sum: 893f9c914d8b8e384479fa6fd8b59ac5
     Pseudo is Norm-conserving, Zval =  4.0
     Generated using ONCVPSP code by D. R. Hamann
     Using radial grid of  602 points,  4 beta functions with:
                l(1) =   0
                l(2) =   0
                l(3) =   1
                l(4) =   1

     atomic species   valence    mass     pseudopotential
        N              5.00    14.00674     N ( 1.00)
        Si             4.00    28.08550     Si( 1.00)

     No symmetry found

   Cartesian axes

     site n.     atom                  positions (alat units)
         1           Si  tau(   1) = (   0.9718663   0.0188034   0.0229996  )
         2           Si  tau(   2) = (   0.2151924   0.2565611   0.0161878  )
         3           Si  tau(   3) = (   0.2405599   0.9961143   0.2657408  )
         4           Si  tau(   4) = (   0.9864909   0.2510285   0.2623410  )
         5           Si  tau(   5) = (   0.1143748   0.1206656   0.1458252  )
         6           Si  tau(   6) = (   0.4217371   0.2708315   0.0496604  )
         7           Si  tau(   7) = (   0.3670189   0.1209531   0.3851245  )
         8           Si  tau(   8) = (   0.1138788   0.3657003   0.3924358  )
         9           Si  tau(   9) = (  -0.0018229   0.9944822   0.5115190  )
        10           Si  tau(  10) = (   0.2459278   0.2454790   0.5112862  )
        11           Si  tau(  11) = (   0.2503775   0.9946598   0.7574097  )
        12           Si  tau(  12) = (   0.9937131   0.2421922   0.7575369  )
        13           Si  tau(  13) = (   0.1236977   0.1185455   0.6354600  )
        14           Si  tau(  14) = (   0.3690093   0.3739942   0.6328056  )
        15           Si  tau(  15) = (   0.3725621   0.1231310   0.8806148  )
        16           Si  tau(  16) = (   0.1166553   0.3693307   0.8809645  )
        17           Si  tau(  17) = (   0.9949636   0.9921606   0.9965596  )
        18           Si  tau(  18) = (   0.2387625   0.2404824   1.0031080  )
        19           Si  tau(  19) = (   0.2514222   0.9911386   1.2438051  )
        20           Si  tau(  20) = (   1.0029780   0.2503960   1.2582947  )
        21           Si  tau(  21) = (   0.1126156   0.1121866   1.1283031  )
        22           Si  tau(  22) = (   0.3705191   0.3703220   1.1124623  )
        23           Si  tau(  23) = (   0.3222001   0.1614476   1.3537011  )
        24           Si  tau(  24) = (   0.1795510   0.3303231   1.3465951  )
        25           Si  tau(  25) = (   0.9666796   0.5319731   0.0213691  )
        26           Si  tau(  26) = (   0.2138396   0.7882869   2.9562832  )
        27           Si  tau(  27) = (   0.1967796   0.5264316   0.2743351  )
        28           Si  tau(  28) = (   0.0453116   0.6865272   0.2946580  )
        29           Si  tau(  29) = (   0.0216381   0.7288509   0.0919314  )
        30           Si  tau(  30) = (   0.3636027   0.8894824   0.1276340  )
        31           Si  tau(  31) = (   0.3665889   0.6234906   0.3739163  )
        32           Si  tau(  32) = (   0.1221520   0.8652551   0.3904574  )
        33           Si  tau(  33) = (   0.9882455   0.4882081   0.5162760  )
        34           Si  tau(  34) = (   0.2494633   0.7436026   0.5121439  )
        35           Si  tau(  35) = (   0.2428284   0.4951132   0.7581049  )
        36           Si  tau(  36) = (   0.9927824   0.7450929   0.7527920  )
        37           Si  tau(  37) = (   0.1179868   0.6182555   0.6311640  )
        38           Si  tau(  38) = (   0.3735994   0.8696944   0.6333128  )
        39           Si  tau(  39) = (   0.3729432   0.6206891   0.8765931  )
        40           Si  tau(  40) = (   0.1200206   0.8695250   0.8731176  )
        41           Si  tau(  41) = (   0.9965288   0.4987912   1.0067700  )
        42           Si  tau(  42) = (   0.2468149   0.7473535   0.9957261  )
        43           Si  tau(  43) = (   0.2503266   0.4994642   1.2385229  )
        44           Si  tau(  44) = (   0.9949041   0.7567907   1.2428587  )
        45           Si  tau(  45) = (   0.1228981   0.6290214   1.1243556  )
        46           Si  tau(  46) = (   0.3726125   0.8767887   1.1113847  )
        47           Si  tau(  47) = (   0.4023518   0.6042274   1.3463215  )
        48           Si  tau(  48) = (   0.1415089   0.8540637   1.3692473  )
        49           Si  tau(  49) = (   0.5199599   0.0022022   0.0219308  )
        50           Si  tau(  50) = (   0.7590395   0.2293852   0.0356263  )
        51           Si  tau(  51) = (   0.7594440   0.9763348   0.2833274  )
        52           Si  tau(  52) = (   0.4971335   0.2348198   0.2547227  )
        53           Si  tau(  53) = (   0.6394450   0.1059911   0.1631160  )
        54           Si  tau(  54) = (   0.8593435   0.3867251   0.1420277  )
        55           Si  tau(  55) = (   0.8718828   0.1220370   0.3924244  )
        56           Si  tau(  56) = (   0.6119052   0.3717813   0.3789977  )
        57           Si  tau(  57) = (   0.4936897  -0.0033758   0.5086854  )
        58           Si  tau(  58) = (   0.7375895   0.2462220   0.5072818  )
        59           Si  tau(  59) = (   0.7449059   0.9995632   0.7579993  )
        60           Si  tau(  60) = (   0.4955237   0.2507279   0.7582680  )
[...]
       250           N   tau( 250) = (   0.1287048   0.4149207   2.6832017  )
       251           N   tau( 251) = (   0.1815742   0.8374684   2.3584084  )
       252           N   tau( 252) = (   0.8256128   0.3222484   1.9955428  )
       253           N   tau( 253) = (   0.4035695   0.9171508   2.7636159  )
       254           N   tau( 254) = (   0.7534001   0.7654178   2.2389928  )
       255           N   tau( 255) = (   0.7878444   0.1744292   1.7668214  )
       256           N   tau( 256) = (   0.6864608   0.1037017   2.0116543  )
       257           N   tau( 257) = (   0.3989222   0.8622821   2.1984206  )
       258           N   tau( 258) = (   0.8699811   0.1295144   2.9329083  )
       259           N   tau( 259) = (   0.4818459   0.2344140   2.4324135  )
       260           N   tau( 260) = (   0.4577636   0.1380151   2.8856091  )
       261           N   tau( 261) = (   0.5066791   0.6829593   2.1301132  )
       262           N   tau( 262) = (   0.0858166   0.5202176   1.8494235  )
       263           N   tau( 263) = (   0.5848418   0.0158336   2.5417150  )
       264           N   tau( 264) = (   0.1545220   0.7070200   1.4371473  )

     number of k points=     1
                       cart. coord. in units 2pi/alat
        k(    1) = (   0.0000000   0.0000000   0.0000000), wk =   2.0000000

     Initial potential from superposition of free atoms

     starting charge 1143.98497, renormalised to 1152.00000
     Starting wfc are random

     Self-consistent Calculation

     iteration #  1     ecut=    70.00 Ry     beta=0.70
     Davidson diagonalization with overlap
     ethr =  1.00E-02,  avg # of iterations = 11.0

     total energy              =   -1318.43728382 Ry
     Harris-Foulkes estimate   =   -3269.50621814 Ry
     estimated scf accuracy    <    2160.13486724 Ry

     iteration #  2     ecut=    70.00 Ry     beta=0.70
     Davidson diagonalization with overlap
     WARNING:    49 eigenvalues not converged
     ethr =  1.00E-02,  avg # of iterations = 21.0

[...]

     negative rho (up, down):  5.878E-01 0.000E+00

[...]

     negative rho (up, down):  1.289E-03 0.000E+00

[...]

     total energy              =   -3243.38143811 Ry
     Harris-Foulkes estimate   =   -3243.38143811 Ry
     estimated scf accuracy    <       0.00000002 Ry

     iteration # 49     ecut=    70.00 Ry     beta=0.70
     Davidson diagonalization with overlap
     ethr =  1.96E-12,  avg # of iterations = 10.0

     End of self-consistent calculation

          k = 0.0000 0.0000 0.0000 (126561 PWs)   bands (ev):

   -11.6121 -11.4559 -11.2676 -11.0828 -10.9969 -10.9207 -10.9023 -10.8564
   -10.7975 -10.7872 -10.6643 -10.6131 -10.5559 -10.4249 -10.3970 -10.3691
   -10.3323 -10.2527 -10.1664 -10.1409 -10.1167 -10.1103 -10.0296  -9.9951
    -9.9513  -9.9076  -9.8287  -9.7455  -9.6886  -9.6362  -9.6153  -9.5550
    -9.5129  -9.4667  -9.3831  -9.3430  -9.2681  -9.2246  -9.1979  -9.1532
    -9.0936  -9.0867  -9.0837  -9.0268  -8.9889  -8.9488  -8.8922  -8.8747
    -8.8586  -8.8049  -8.7679  -8.7286  -8.7001  -8.6500  -8.6265  -8.6046
    -8.5761  -8.5583  -8.5385  -8.5169  -8.4793  -8.4569  -8.4232  -8.4115
    -8.3911  -8.3309  -8.2977  -8.2610  -8.2564  -8.2212  -8.1880  -8.1653
    -8.1585  -8.1385  -8.0864  -8.0770  -8.0598  -8.0348  -8.0014  -7.9912
    -7.9513  -7.9262  -7.8657  -7.8614  -7.8148  -7.7957  -7.7650  -7.7332
    -7.7137  -7.7054  -7.6332  -7.6172  -7.5808  -7.4450  -7.3068  -7.2389
    -4.6513  -4.3424  -3.9194  -3.7320  -3.5825  -3.5643  -3.5530  -3.4542
    -3.4405  -3.4061  -3.3085  -3.2853  -3.2445  -3.2122  -3.1596  -3.1184
    -3.0464  -3.0152  -2.9552  -2.9367  -2.8854  -2.8563  -2.8466  -2.8400
    -2.7912  -2.7572  -2.7203  -2.6907  -2.6778  -2.6590  -2.6347  -2.6124
    -2.6005  -2.5693  -2.5674  -2.5363  -2.5229  -2.5048  -2.4713  -2.4567
    -2.4340  -2.4203  -2.3991  -2.3839  -2.3637  -2.3316  -2.3075  -2.2779
    -2.2381  -2.2034  -2.1486  -2.1240  -2.0847  -2.0448  -2.0286  -1.9898
    -1.9500  -1.9223  -1.9052  -1.8340  -1.7901  -1.7582  -1.7408  -1.6819
    -1.6539  -1.6114  -1.5821  -1.5508  -1.5379  -1.4901  -1.4418  -1.3780
    -1.3592  -1.3258  -1.2977  -1.2796  -1.2175  -1.2000  -1.1741  -1.1072
    -1.1008  -1.0736  -1.0476  -0.9948  -0.9618  -0.9018  -0.8859  -0.8431
    -0.8102  -0.7801  -0.7326  -0.6891  -0.6725  -0.6516  -0.6270  -0.5841
    -0.5671  -0.5497  -0.5418  -0.5228  -0.5112  -0.4951  -0.4909  -0.4762
    -0.4492  -0.4373  -0.4209  -0.4102  -0.3927  -0.3793  -0.3547  -0.3322
    -0.3189  -0.2662  -0.2362  -0.2233  -0.2057  -0.1480  -0.1384  -0.1228
    -0.1128  -0.0780  -0.0201  -0.0099   0.0262   0.0560   0.1157   0.1311
     0.1593   0.1667   0.1871   0.2100   0.2220   0.2891   0.3036   0.3140
     0.3213   0.3453   0.3816   0.4064   0.4511   0.4680   0.4764   0.5046
     0.5268   0.5334   0.5610   0.6001   0.6015   0.6277   0.6524   0.6630
     0.6773   0.6984   0.7223   0.7536   0.7696   0.7841   0.8366   0.8588
     0.8832   0.8971   0.9078   0.9268   0.9365   0.9498   0.9892   0.9921
     1.0221   1.0583   1.0745   1.0782   1.1006   1.1159   1.1642   1.1651
     1.1971   1.2036   1.2491   1.2689   1.2863   1.3037   1.3199   1.3447
     1.3466   1.3793   1.3874   1.4211   1.4340   1.4678   1.4823   1.4852
     1.5185   1.5357   1.5471   1.5610   1.5811   1.6126   1.6442   1.6512
     1.6759   1.6852   1.7088   1.7260   1.7798   1.7881   1.8185   1.8306
     1.8566   1.8722   1.8822   1.9021   1.9246   1.9488   1.9774   1.9823
     1.9968   2.0387   2.0514   2.0912   2.1006   2.1370   2.1580   2.1717
     2.1863   2.2084   2.2211   2.2404   2.2486   2.2852   2.2925   2.3195
     2.3255   2.3599   2.3639   2.3719   2.3994   2.4167   2.4463   2.4559
     2.4715   2.5160   2.5253   2.5324   2.5607   2.5907   2.5974   2.6269
     2.6384   2.6639   2.6767   2.7062   2.7261   2.7483   2.7670   2.7762
     2.8056   2.8184   2.8419   2.8733   2.8864   2.8957   2.9381   2.9485
     2.9659   2.9826   3.0005   3.0266   3.0362   3.0597   3.0639   3.0884
     3.0974   3.1223   3.1388   3.1415   3.1558   3.1659   3.1855   3.2187
     3.2238   3.2321   3.2414   3.2648   3.2752   3.2805   3.2950   3.3022
     3.3300   3.3507   3.3673   3.3906   3.4020   3.4136   3.4291   3.4387
     3.4471   3.4706   3.4858   3.4885   3.5137   3.5274   3.5517   3.5618
     3.5734   3.5910   3.5997   3.6231   3.6290   3.6496   3.6575   3.6840
     3.7139   3.7252   3.7356   3.7763   3.7922   3.7980   3.8134   3.8478
     3.8591   3.8735   3.8790   3.8941   3.9028   3.9309   3.9705   3.9892
     4.0033   4.0145   4.0257   4.0334   4.0611   4.0701   4.0957   4.1099
     4.1347   4.1508   4.1575   4.1644   4.1809   4.1961   4.2096   4.2288
     4.2547   4.2591   4.2884   4.2987   4.3079   4.3230   4.3522   4.3583
     4.3730   4.4025   4.4295   4.4427   4.4509   4.4627   4.4737   4.4853
     4.5065   4.5405   4.5557   4.5568   4.5689   4.5810   4.6081   4.6182
     4.6201   4.6528   4.6876   4.7031   4.7099   4.7381   4.7588   4.7652
     4.7762   4.7877   4.8048   4.8306   4.8630   4.8784   4.8834   4.9042
[...]
     8.5266   8.5648   8.6364   8.6458   8.7297   8.7768   8.8439   8.8799
     8.9237   8.9783   8.9888   9.0590   9.1096   9.1609   9.1854   9.2004
     9.2462   9.2711   9.3047   9.3651   9.3945   9.4134   9.4701   9.4967
     9.5303   9.5362   9.5636   9.5709   9.5835   9.6095   9.6583   9.7069
     9.7195   9.7824   9.7876   9.8092   9.8174   9.8402   9.8716   9.8806
     9.8918   9.9246   9.9439   9.9635   9.9922  10.0037  10.0348  10.0503
    10.0582  10.1070  10.1283  10.1540  10.1607  10.1840  10.2317  10.2559
    10.2939  10.2997  10.3276  10.3411  10.3568  10.3790  10.3869  10.3992
    10.4235  10.4387  10.4817  10.4925  10.5120  10.5319  10.5780  10.5927
    10.6098  10.6167  10.6318  10.6454  10.6707  10.6764  10.6930  10.7010
    10.7344  10.7388  10.7494  10.7750  10.8034  10.8211  10.8349  10.8557
    10.8692  10.8883  10.9040  10.9104  10.9351  10.9446  10.9616  10.9675
    10.9992  11.0070  11.0372  11.0491  11.0709  11.0854  11.1166  11.1401
    11.1616  11.1874  11.2078  11.2313  11.2485  11.2667  11.2857  11.3129
    11.3144  11.3296  11.3343  11.3436

     highest occupied, lowest unoccupied level (ev):     7.4695    7.7719

!    total energy              =   -3243.38143811 Ry
     Harris-Foulkes estimate   =   -3243.38143811 Ry
     estimated scf accuracy    <          4.5E-09 Ry

     The total energy is the sum of the following terms:

     one-electron contribution =  -10667.64919057 Ry
     hartree contribution      =    5938.34323621 Ry
     xc contribution           =    -912.24413788 Ry
     ewald contribution        =    2398.16865413 Ry

     convergence has been achieved in  49 iterations

     Writing output data file interface.save

     General routines

     Parallel routines

   This run was terminated on:  17:45:53  10Sep2017

   JOB DONE.