     Program PWSCF v.6.1 (svn rev. 13369) starts on 11Sep2017 at 16:51:38

     Current dimensions of program PWSCF are:
     Max number of different atomic species (ntypx) = 10
     Max number of k-points (npk) =  40000
     Max angular momentum in pseudopotentials (lmaxx) =  3

     gamma-point specific algorithms are used

     Found symmetry operation: I + (  0.2500  0.2500  0.0000)
     This is a supercell, fractional translations are disabled

     bravais-lattice index     =            1
     lattice parameter (alat)  =      20.5280  a.u.
     unit-cell volume          =    8650.4742 (a.u.)^3
     number of atoms/cell      =           64
     number of atomic types    =            1
     number of electrons       =       256.00
     number of Kohn-Sham states=          250
     kinetic-energy cutoff     =      40.0000  Ry
     charge density cutoff     =     160.0000  Ry
     convergence threshold     =      1.0E-06
     mixing beta               =       0.7000
     number of iterations used =            8  plain     mixing
     Exchange-correlation      = SLA  PW   PBE  PBE ( 1  4  3  4 0 0)

     celldm(1)=  20.528000  celldm(2)=   0.000000  celldm(3)=   0.000000
     celldm(4)=   0.000000  celldm(5)=   0.000000  celldm(6)=   0.000000

     crystal axes: (cart. coord. in units of alat)
               a(1) = (   1.000000   0.000000   0.000000 )
               a(2) = (   0.000000   1.000000   0.000000 )
               a(3) = (   0.000000   0.000000   1.000000 )

     reciprocal axes: (cart. coord. in units 2 pi/alat)
               b(1) = (  1.000000  0.000000  0.000000 )
               b(2) = (  0.000000  1.000000  0.000000 )
               b(3) = (  0.000000  0.000000  1.000000 )

     PseudoPot. # 1 for Si read from file:
     ./si_pbe_v1.uspp.F.UPF
     MD5 check sum: a056efeee980c13900f22a371efd63c1
     Pseudo is Ultrasoft + core correction, Zval =  4.0
     Generated by new atomic code, or converted to UPF format
     Using radial grid of  899 points,  6 beta functions with:
                l(1) =   0
                l(2) =   0
                l(3) =   1
                l(4) =   1
                l(5) =   2
                l(6) =   2
     Q(r) pseudized with  8 coefficients,  rinner =    0.900   0.900   0.900
                                                       0.900   0.900

     atomic species   valence    mass     pseudopotential
        Si             4.00    28.08600     Si( 1.00)

     No symmetry found

   Cartesian axes

     site n.     atom                  positions (alat units)
         1           Si  tau(   1) = (   0.0625000   0.0625000   0.0625000  )
         2           Si  tau(   2) = (   0.3124999   0.3124999   0.0625000  )
         3           Si  tau(   3) = (   0.3124999   0.0625000   0.3124999  )
         4           Si  tau(   4) = (   0.0625000   0.3124999   0.3124999  )
         5           Si  tau(   5) = (   0.1874999   0.1874999   0.4374998  )
         6           Si  tau(   6) = (   0.0625000   0.0625000   0.5624998  )
         7           Si  tau(   7) = (   0.3124999   0.3124999   0.5624998  )
         8           Si  tau(   8) = (   0.3124999   0.0625000   0.8124997  )
         9           Si  tau(   9) = (   0.0625000   0.3124999   0.8124997  )
        10           Si  tau(  10) = (   0.1874999   0.1874999   0.9374996  )
        11           Si  tau(  11) = (   0.1874999   0.4374998   0.1874999  )
        12           Si  tau(  12) = (   0.0625000   0.5624998   0.0625000  )
        13           Si  tau(  13) = (   0.3124999   0.8124997   0.0625000  )
        14           Si  tau(  14) = (   0.3124999   0.5624998   0.3124999  )
        15           Si  tau(  15) = (   0.0625000   0.8124997   0.3124999  )
        16           Si  tau(  16) = (   0.1874999   0.6874997   0.4374998  )
        17           Si  tau(  17) = (   0.1874999   0.4374998   0.6874997  )
        18           Si  tau(  18) = (   0.0625000   0.5624998   0.5624998  )
        19           Si  tau(  19) = (   0.3124999   0.8124997   0.5624998  )
        20           Si  tau(  20) = (   0.3124999   0.5624998   0.8124997  )
        21           Si  tau(  21) = (   0.0625000   0.8124997   0.8124997  )
        22           Si  tau(  22) = (   0.1874999   0.6874997   0.9374996  )
        23           Si  tau(  23) = (   0.1874999   0.9374996   0.1874999  )
        24           Si  tau(  24) = (   0.1874999   0.9374996   0.6874997  )
        25           Si  tau(  25) = (   0.4374998   0.1874999   0.1874999  )
        26           Si  tau(  26) = (   0.5624998   0.0625000   0.0625000  )
        27           Si  tau(  27) = (   0.8124997   0.3124999   0.0625000  )
        28           Si  tau(  28) = (   0.8124997   0.0625000   0.3124999  )
        29           Si  tau(  29) = (   0.5624998   0.3124999   0.3124999  )
        30           Si  tau(  30) = (   0.6874997   0.1874999   0.4374998  )
        31           Si  tau(  31) = (   0.4374998   0.1874999   0.6874997  )
        32           Si  tau(  32) = (   0.5624998   0.0625000   0.5624998  )
        33           Si  tau(  33) = (   0.8124997   0.3124999   0.5624998  )
        34           Si  tau(  34) = (   0.8124997   0.0625000   0.8124997  )
        35           Si  tau(  35) = (   0.5624998   0.3124999   0.8124997  )
        36           Si  tau(  36) = (   0.6874997   0.1874999   0.9374996  )
        37           Si  tau(  37) = (   0.6874997   0.4374998   0.1874999  )
        38           Si  tau(  38) = (   0.4374998   0.6874997   0.1874999  )
        39           Si  tau(  39) = (   0.5624998   0.5624998   0.0625000  )
        40           Si  tau(  40) = (   0.8124997   0.8124997   0.0625000  )
        41           Si  tau(  41) = (   0.8124997   0.5624998   0.3124999  )
        42           Si  tau(  42) = (   0.5624998   0.8124997   0.3124999  )
        43           Si  tau(  43) = (   0.4374998   0.4374998   0.4374998  )
        44           Si  tau(  44) = (   0.6874997   0.6874997   0.4374998  )
        45           Si  tau(  45) = (   0.6874997   0.4374998   0.6874997  )
        46           Si  tau(  46) = (   0.4374998   0.6874997   0.6874997  )
        47           Si  tau(  47) = (   0.5624998   0.5624998   0.5624998  )
        48           Si  tau(  48) = (   0.8124997   0.8124997   0.5624998  )
        49           Si  tau(  49) = (   0.8124997   0.5624998   0.8124997  )
        50           Si  tau(  50) = (   0.5624998   0.8124997   0.8124997  )
        51           Si  tau(  51) = (   0.4374998   0.4374998   0.9374996  )
        52           Si  tau(  52) = (   0.6874997   0.6874997   0.9374996  )
        53           Si  tau(  53) = (   0.6874997   0.9374996   0.1874999  )
        54           Si  tau(  54) = (   0.4374998   0.9374996   0.4374998  )
        55           Si  tau(  55) = (   0.6874997   0.9374996   0.6874997  )
        56           Si  tau(  56) = (   0.4374998   0.9374996   0.9374996  )
        57           Si  tau(  57) = (   0.9374996   0.1874999   0.1874999  )
        58           Si  tau(  58) = (   0.9374996   0.1874999   0.6874997  )
        59           Si  tau(  59) = (   0.9374996   0.6874997   0.1874999  )
        60           Si  tau(  60) = (   0.9374996   0.4374998   0.4374998  )
        61           Si  tau(  61) = (   0.9374996   0.6874997   0.6874997  )
        62           Si  tau(  62) = (   0.9374996   0.4374998   0.9374996  )
        63           Si  tau(  63) = (   0.9374996   0.9374996   0.4374998  )
        64           Si  tau(  64) = (   0.9374996   0.9374996   0.9374996  )

     number of k points=     1
                       cart. coord. in units 2pi/alat
        k(    1) = (   0.0000000   0.0000000   0.0000000), wk =   2.0000000

     Initial potential from superposition of free atoms

     starting charge  255.95705, renormalised to  256.00000
     Starting wfc are  256 randomized atomic wfcs

     Self-consistent Calculation

     iteration #  1     ecut=    40.00 Ry     beta=0.70
     Davidson diagonalization with overlap
     ethr =  1.00E-02,  avg # of iterations =  4.0

     Threshold (ethr) on eigenvalues was too large:
     Diagonalizing with lowered threshold

     Davidson diagonalization with overlap
     ethr =  7.97E-04,  avg # of iterations =  2.0

     total energy              =    -613.59012199 Ry
     Harris-Foulkes estimate   =    -614.09396952 Ry
     estimated scf accuracy    <       2.03225423 Ry

[...]

     total energy              =    -613.67898078 Ry
     Harris-Foulkes estimate   =    -613.67898271 Ry
     estimated scf accuracy    <       0.00000579 Ry

     iteration #  7     ecut=    40.00 Ry     beta=0.70
     Davidson diagonalization with overlap
     ethr =  2.26E-09,  avg # of iterations =  2.0

     End of self-consistent calculation

          k = 0.0000 0.0000 0.0000 ( 18537 PWs)   bands (ev):

    -5.7275  -4.6454  -4.6454  -4.6454  -4.6453  -4.6453  -4.6452  -3.6831
    -3.6831  -3.6831  -3.6831  -3.6830  -3.6830  -3.6830  -3.6830  -3.6830
    -3.6829  -3.6829  -3.6828  -3.3945  -3.3945  -3.3945  -3.3944  -1.5820
    -1.5820  -1.5819  -1.5819  -1.5819  -1.5819  -1.4174  -1.4174  -1.4174
    -1.4173  -1.4173  -1.4173  -1.4173  -1.4173  -1.4173  -1.4172  -1.4172
    -1.4172  -0.7394  -0.7394  -0.7394  -0.7394   0.7543   0.7544   0.7544
     0.7544   0.7544   0.7544   0.7544   0.7544   0.7545   0.7545   0.7545
     0.7545   2.3743   2.3743   2.3743   2.3744   2.3744   2.3744   2.3744
     2.3744   2.3745   2.3745   2.3745   2.3745   2.4751   2.4751   2.4751
     2.4751   2.4751   2.4751   2.4751   2.4751   2.4752   2.4752   2.4752
     2.4752   2.7200   2.7200   2.7200   2.7200   2.7200   2.7200   3.3770
     3.3770   3.3771   3.3771   3.3771   3.3771   4.3408   4.3408   4.3408
     4.3408   4.3409   4.3409   4.3409   4.3409   4.3409   4.3409   4.3409
     4.3409   4.9050   4.9050   4.9050   4.9050   4.9050   4.9051   4.9051
     4.9051   4.9051   4.9051   4.9051   4.9052   5.0349   5.0349   5.0349
     5.0349   5.0349   5.0350   5.0350   5.0350   6.2383   6.2383   6.2383
     6.9342   6.9342   6.9342   6.9342   6.9343   6.9343   7.3541   7.3541
     7.3541   7.3541   7.3541   7.3541   7.7677   7.7677   7.7677   7.7677
     8.6738   8.6738   8.6738   8.6738   8.6738   8.6738   8.6738   8.6738
     8.6738   8.6738   8.6738   8.6738   8.7839   8.7839   8.7839   9.3561
     9.3561   9.3561   9.3562   9.3562   9.3562   9.5609   9.5609   9.5609
     9.5609   9.5609   9.5609   9.5609   9.5609   9.5978  10.4998  10.4998
    10.4998  10.4998  10.4998  10.4998  10.4998  10.4998  10.4998  10.4998
    10.4998  10.4999  11.0108  11.0108  11.0108  11.0108  11.0108  11.0109
    11.0109  11.0109  11.0109  11.0109  11.0109  11.0109  11.2258  11.2258
    11.2258  11.2258  11.2258  11.2258  11.2258  11.2258  11.2258  11.2258
    11.2258  11.2258  11.3693  11.3693  11.3693  11.3693  11.3693  11.3693
    11.3693  11.3693  11.3694  11.3694  11.3694  11.3694  11.9857  11.9857
    11.9857  11.9857  11.9857  11.9858  11.9858  11.9858  11.9858  11.9858
    11.9858  11.9858  12.3717  12.3717  12.3718  12.3718  12.3718  12.3718
    12.3718  12.3718  12.3718  12.3718  12.3719  12.3719  12.6735  12.6736
    12.6736  12.6736

     highest occupied, lowest unoccupied level (ev):     6.2383    6.9342

!    total energy              =    -613.67898203 Ry
     Harris-Foulkes estimate   =    -613.67898193 Ry
     estimated scf accuracy    <       0.00000018 Ry

     The total energy is the sum of the following terms:

     one-electron contribution =     163.40567092 Ry
     hartree contribution      =      36.61868143 Ry
     xc contribution           =    -276.28310863 Ry
     ewald contribution        =    -537.42022576 Ry

     convergence has been achieved in   7 iterations

     Writing output data file si-gbrv.save

     General routines

     Parallel routines

   This run was terminated on:  16:51:50  11Sep2017

   JOB DONE.